c 128_3_checker.cnf
c
c field = 128
c formula set type = 3_checker
c
p cnf 4 64
248 
250 
252 
-246 
249 
251 
253 
-247 
248 
250 
252 
-256 
249 
251 
253 
-257 
250 
252 
256 
-248 
251 
253 
257 
-249 
250 
252 
256 
-258 
251 
253 
257 
-259 
252 
256 
258 
-250 
253 
257 
259 
-251 
252 
256 
258 
-260 
253 
257 
259 
-261 
256 
258 
260 
-252 
257 
259 
261 
-253 
256 
258 
260 
-262 
257 
259 
261 
-263 
164 
194 
224 
-134 
165 
195 
225 
-135 
164 
194 
224 
-284 
165 
195 
225 
-285 
194 
224 
284 
-164 
195 
225 
285 
-165 
194 
224 
284 
-314 
195 
225 
285 
-315 
224 
284 
314 
-194 
225 
285 
315 
-195 
224 
284 
314 
-344 
225 
285 
315 
-345 
284 
314 
344 
-224 
285 
315 
345 
-225 
284 
314 
344 
-374 
285 
315 
345 
-375 
158 
190 
222 
-126 
159 
191 
223 
-127 
158 
190 
222 
-286 
159 
191 
223 
-287 
190 
222 
286 
-158 
191 
223 
287 
-159 
190 
222 
286 
-318 
191 
223 
287 
-319 
222 
286 
318 
-190 
223 
287 
319 
-191 
222 
286 
318 
-350 
223 
287 
319 
-351 
286 
318 
350 
-222 
287 
319 
351 
-223 
286 
318 
350 
-382 
287 
319 
351 
-383 
170 
198 
226 
-142 
171 
199 
227 
-143 
170 
198 
226 
-282 
171 
199 
227 
-283 
198 
226 
282 
-170 
199 
227 
283 
-171 
198 
226 
282 
-310 
199 
227 
283 
-311 
226 
282 
310 
-198 
227 
283 
311 
-199 
226 
282 
310 
-338 
227 
283 
311 
-339 
282 
310 
338 
-226 
283 
311 
339 
-227 
282 
310 
338 
-366 
283 
311 
339 
-367 
